(set-logic QF_S)
(declare-fun var0 () String)
(declare-fun var1 () String)
(declare-fun var2 () String)
(declare-fun var3 () String)
(declare-fun var4 () String)
(declare-fun var5 () String)
(declare-fun var6 () String)
(declare-fun var7 () String)
(declare-fun var8 () String)
(declare-fun var9 () String)
(declare-fun var10 () String)
(declare-fun var11 () String)
(declare-fun var12 () String)
(declare-fun var13 () String)
(declare-fun var14 () String)
(declare-fun var15 () String)
(declare-fun var16 () String)
(declare-fun var17 () String)
(declare-fun var18 () String)
(declare-fun var19 () String)
(declare-fun var20 () String)
(declare-fun var21 () String)
(declare-fun var22 () String)
(declare-fun var23 () String)
(declare-fun var24 () String)
(declare-fun var25 () String)
(declare-fun var26 () String)
(declare-fun var27 () String)
(declare-fun var28 () String)
(declare-fun var29 () String)
(declare-fun var30 () String)
(declare-fun var31 () String)
(declare-fun var32 () String)
(declare-fun var33 () String)
(declare-fun var34 () String)
(declare-fun var35 () String)
(declare-fun var36 () String)
(declare-fun var37 () String)
(declare-fun var38 () String)
(declare-fun var39 () String)
(declare-fun var40 () String)
(declare-fun var41 () String)
(declare-fun var42 () String)
(declare-fun var43 () String)
(declare-fun var44 () String)
(declare-fun var45 () String)
(declare-fun var46 () String)
(declare-fun var47 () String)
(declare-fun var48 () String)
(declare-fun var49 () String)
(declare-fun var50 () String)
(declare-fun var51 () String)
(declare-fun var52 () String)
(declare-fun var53 () String)
(declare-fun var54 () String)
(declare-fun var55 () String)
(declare-fun var56 () String)
(declare-fun var57 () String)
(declare-fun var58 () String)
(declare-fun var59 () String)
(declare-fun var60 () String)
(assert (= var0 (str.++ var1 var2)))
(assert (= var2 (str.++ var3 var4)))
(assert (= var4 (str.++ var5 var6)))
(assert (= var6 (str.++ var7 var8)))
(assert (= var8 (str.++ var9 var10)))
(assert (= var10 (str.++ var11 var12)))
(assert (= var12 (str.++ var13 var14)))
(assert (= var14 (str.++ var15 var16)))
(assert (= var16 (str.++ var17 var18)))
(assert (= var18 (str.++ var19 var20)))
(assert (= var20 (str.++ var21 var22)))
(assert (= var22 (str.++ var23 var24)))
(assert (= var24 (str.++ var25 var26)))
(assert (= var26 (str.++ var27 var28)))
(assert (= var28 (str.++ var29 var30)))
(assert (= var30 (str.++ var31 var32)))
(assert (= var32 (str.++ var33 var34)))
(assert (= var34 (str.++ var35 var36)))
(assert (= var36 (str.++ var37 var38)))
(assert (= var38 (str.++ var39 var40)))
(assert (= var40 (str.++ var41 var42)))
(assert (= var42 (str.++ var43 var44)))
(assert (= var44 (str.++ var45 var46)))
(assert (= var46 (str.++ var47 var48)))
(assert (= var48 (str.++ var49 var50)))
(assert (= var50 (str.++ var51 var52)))
(assert (= var52 (str.++ var53 var54)))
(assert (= var54 (str.++ var55 var56)))
(assert (= var56 (str.++ var57 var58)))
(assert (= var58 (str.++ var59 var60)))
(assert (= var0 "solution"))
(assert (= "7" (str.at var49 936)))
(assert (= "a" (str.at var49 251)))
(assert (= "j" (str.at var41 1)))
(assert (= "=" (str.at var52 989)))
(assert (= "1" (str.at var3 923)))
(assert (= "H" (str.at var38 797)))
(assert (= "4" (str.at var15 217)))
(assert (= "]" (str.at var15 249)))
(assert (= "2" (str.at var27 954)))
(assert (= "$" (str.at var1 608)))
(assert (= ":" (str.at var39 750)))
(assert (= "{" (str.at var28 60)))
(assert (= ";" (str.at var23 998)))
(assert (= "M" (str.at var3 246)))
(assert (= "^" (str.at var15 915)))
(assert (= "z" (str.at var56 959)))
(assert (= "g" (str.at var39 423)))
(assert (= ")" (str.at var18 300)))
(assert (= "e" (str.at var3 552)))
(assert (= "k" (str.at var1 994)))
(assert (= "U" (str.at var1 470)))
(assert (= "n" (str.at var60 771)))
(assert (= "$" (str.at var30 122)))
(assert (= "'" (str.at var27 868)))
(assert (= "P" (str.at var55 614)))
(assert (= "E" (str.at var57 822)))
(assert (= "\\" (str.at var35 490)))
(assert (= "," (str.at var31 363)))
(assert (= "d" (str.at var0 739)))
(assert (= "j" (str.at var2 607)))
(assert (= "^" (str.at var12 413)))
(assert (= "I" (str.at var49 811)))
(assert (= "F" (str.at var21 190)))
(assert (= "m" (str.at var17 744)))
(assert (= "r" (str.at var20 167)))
(assert (= "S" (str.at var18 803)))
(assert (= "r" (str.at var24 343)))
(assert (= "f" (str.at var3 412)))
(assert (= "s" (str.at var58 697)))
(assert (= "v" (str.at var17 271)))
(assert (= "0" (str.at var14 618)))
(assert (= "|" (str.at var4 704)))
(assert (= "A" (str.at var36 199)))
(assert (= "4" (str.at var24 633)))
(assert (= "]" (str.at var41 187)))
(assert (= "?" (str.at var30 798)))
(assert (= "V" (str.at var1 826)))
(assert (= "-" (str.at var44 461)))
(assert (= "s" (str.at var41 280)))
(assert (= "[" (str.at var25 685)))
(assert (= "Z" (str.at var52 190)))
(assert (= "t" (str.at var7 912)))
(assert (= "k" (str.at var27 833)))
(assert (= "T" (str.at var29 273)))
(assert (= "]" (str.at var16 963)))
(assert (= "[" (str.at var7 374)))
(assert (= "b" (str.at var39 546)))
(assert (= "h" (str.at var33 347)))
(assert (= "~" (str.at var8 685)))
(assert (= "c" (str.at var22 957)))
(assert (= "A" (str.at var27 742)))
(assert (= "R" (str.at var14 415)))
(assert (= "Q" (str.at var52 206)))
(assert (= "~" (str.at var57 173)))
(assert (= "@" (str.at var54 703)))
(assert (= "G" (str.at var23 80)))
(assert (= "," (str.at var57 91)))
(assert (= "5" (str.at var52 663)))
(assert (= "7" (str.at var24 491)))
(assert (= "I" (str.at var20 744)))
(assert (= ">" (str.at var15 526)))
(assert (= "!" (str.at var60 345)))
(assert (= "(" (str.at var10 376)))
(assert (= ">" (str.at var37 911)))
(assert (= "<" (str.at var39 99)))
(assert (= "z" (str.at var34 25)))
(assert (= "=" (str.at var48 87)))
(assert (= ">" (str.at var21 199)))
(assert (= "-" (str.at var32 568)))
(assert (= "}" (str.at var54 235)))
(assert (= "z" (str.at var15 917)))
(assert (= "G" (str.at var44 510)))
(assert (= "h" (str.at var42 826)))
(assert (= "1" (str.at var31 476)))
(assert (= """" (str.at var42 423)))
(assert (= "r" (str.at var22 152)))
(assert (= "=" (str.at var57 179)))
(assert (= "p" (str.at var2 815)))
(assert (= "2" (str.at var13 87)))
(assert (= "`" (str.at var36 919)))
(assert (= "*" (str.at var0 535)))
(assert (= "Z" (str.at var37 414)))
(assert (= "y" (str.at var24 252)))
(assert (= "J" (str.at var23 834)))
(assert (= "}" (str.at var40 589)))
(assert (= "G" (str.at var27 170)))
(assert (= "[" (str.at var35 888)))
(assert (= "f" (str.at var45 316)))
(assert (= "6" (str.at var44 876)))
(assert (= "F" (str.at var32 133)))
(assert (= "4" (str.at var26 539)))
(assert (= "q" (str.at var13 433)))
(assert (= "b" (str.at var35 979)))
(assert (= "B" (str.at var33 87)))
(assert (= "V" (str.at var43 689)))
(assert (= "[" (str.at var3 318)))
(assert (= "L" (str.at var17 997)))
(assert (= ")" (str.at var50 949)))
(assert (= "a" (str.at var2 534)))
(assert (= "!" (str.at var19 842)))
(assert (= "3" (str.at var42 943)))
(assert (= "A" (str.at var0 786)))
(assert (= "6" (str.at var53 176)))
(assert (= "y" (str.at var25 733)))
(assert (= "O" (str.at var27 852)))
(assert (= "_" (str.at var32 849)))
(assert (= "T" (str.at var5 934)))
(assert (= "Y" (str.at var3 761)))
(assert (= "%" (str.at var50 537)))
(assert (= "t" (str.at var6 77)))
(assert (= "V" (str.at var28 896)))
(assert (= "e" (str.at var12 626)))
(assert (= "D" (str.at var9 344)))
(assert (= "2" (str.at var22 562)))
(assert (= "w" (str.at var31 307)))
(assert (= "W" (str.at var36 383)))
(assert (= "e" (str.at var60 845)))
(assert (= "t" (str.at var15 473)))
(assert (= "e" (str.at var13 574)))
(assert (= "$" (str.at var6 638)))
(assert (= "+" (str.at var21 362)))
(assert (= "8" (str.at var36 724)))
(assert (= "7" (str.at var56 348)))
(assert (= "*" (str.at var14 902)))
(assert (= ";" (str.at var46 207)))
(assert (= "Y" (str.at var39 86)))
(assert (= "R" (str.at var8 751)))
(assert (= "M" (str.at var18 800)))
(assert (= "7" (str.at var20 509)))
(assert (= "#" (str.at var32 293)))
(assert (= "X" (str.at var0 869)))
(assert (= "%" (str.at var3 738)))
(assert (= "G" (str.at var35 434)))
(assert (= "Y" (str.at var32 246)))
(assert (= "+" (str.at var3 76)))
(assert (= "}" (str.at var51 401)))
(assert (= "s" (str.at var39 393)))
(assert (= "(" (str.at var31 20)))
(assert (= "3" (str.at var3 33)))
(assert (= "A" (str.at var28 107)))
(assert (= "@" (str.at var18 909)))
(assert (= "?" (str.at var55 878)))
(assert (= "O" (str.at var9 85)))
(assert (= "`" (str.at var46 803)))
(assert (= "1" (str.at var41 813)))
(assert (= "R" (str.at var60 186)))
(assert (= "]" (str.at var25 686)))
(assert (= "%" (str.at var41 138)))
(assert (= "v" (str.at var12 838)))
(assert (= "!" (str.at var54 372)))
(assert (= ">" (str.at var24 971)))
(assert (= "C" (str.at var12 949)))
(assert (= """" (str.at var32 210)))
(assert (= "B" (str.at var49 79)))
(assert (= "|" (str.at var44 376)))
(assert (= "2" (str.at var27 324)))
(assert (= "B" (str.at var44 323)))
(assert (= "S" (str.at var19 873)))
(assert (= "X" (str.at var46 393)))
(assert (= "^" (str.at var22 561)))
(assert (= "+" (str.at var27 673)))
(assert (= "*" (str.at var2 12)))
(assert (= "0" (str.at var1 896)))
(assert (= "V" (str.at var20 901)))
(assert (= "'" (str.at var43 150)))
(assert (= "}" (str.at var12 495)))
(assert (= "P" (str.at var31 943)))
(assert (= "d" (str.at var47 365)))
(assert (= "r" (str.at var7 666)))
(assert (= "a" (str.at var59 339)))
(assert (= "P" (str.at var0 955)))
(assert (= "'" (str.at var56 460)))
(assert (= "c" (str.at var39 514)))
(assert (= "L" (str.at var40 424)))
(assert (= "2" (str.at var4 645)))
(assert (= """" (str.at var57 220)))
(assert (= "P" (str.at var60 203)))
(assert (= "\\" (str.at var48 81)))
(assert (= "W" (str.at var53 435)))
(assert (= "r" (str.at var35 573)))
(assert (= "t" (str.at var1 728)))
(assert (= "O" (str.at var25 404)))
(assert (= "y" (str.at var23 265)))
(assert (= "n" (str.at var16 776)))
(assert (= "<" (str.at var48 482)))
(assert (= "@" (str.at var11 126)))
(assert (= "E" (str.at var19 844)))
(assert (= "Y" (str.at var31 5)))
(assert (= "^" (str.at var41 906)))
(assert (= "]" (str.at var42 895)))
(assert (= "O" (str.at var29 859)))
(assert (= "H" (str.at var1 688)))
(assert (= "}" (str.at var44 387)))
(assert (= "'" (str.at var35 243)))
(assert (= "w" (str.at var10 209)))
(assert (= "?" (str.at var8 387)))
(assert (= "L" (str.at var7 336)))
(assert (= "b" (str.at var3 928)))
(assert (= "+" (str.at var28 570)))
(assert (= "(" (str.at var12 560)))
(assert (= "b" (str.at var21 716)))
(assert (= "5" (str.at var30 20)))
(assert (= "s" (str.at var12 533)))
(assert (= "y" (str.at var48 100)))
(assert (= "A" (str.at var8 613)))
(assert (= """" (str.at var54 178)))
(assert (= "2" (str.at var23 191)))
(assert (= "%" (str.at var9 893)))
(assert (= "~" (str.at var0 369)))
(assert (= "I" (str.at var21 445)))
(assert (= "s" (str.at var13 436)))
(assert (= "I" (str.at var6 249)))
(assert (= "/" (str.at var12 754)))
(assert (= "T" (str.at var14 199)))
(assert (= "Z" (str.at var40 934)))
(assert (= "?" (str.at var32 132)))
(assert (= "~" (str.at var52 956)))
(assert (= "e" (str.at var39 49)))
(assert (= "%" (str.at var28 823)))
(assert (= "z" (str.at var45 489)))
(assert (= "!" (str.at var15 367)))
(assert (= "<" (str.at var18 818)))
(assert (= "K" (str.at var58 107)))
(assert (= "$" (str.at var9 799)))
(assert (= "[" (str.at var17 806)))
(assert (= "W" (str.at var5 623)))
(assert (= "V" (str.at var0 71)))
(assert (= "1" (str.at var14 24)))
(assert (= "\\" (str.at var18 683)))
(assert (= "E" (str.at var13 766)))
(assert (= "{" (str.at var58 876)))
(assert (= ")" (str.at var28 724)))
(assert (= "5" (str.at var0 327)))
(assert (= "I" (str.at var10 212)))
(assert (= "l" (str.at var59 770)))
(assert (= "R" (str.at var15 47)))
(assert (= "~" (str.at var35 355)))
(assert (= "&" (str.at var6 180)))
(assert (= "u" (str.at var47 231)))
(assert (= "]" (str.at var24 583)))
(assert (= "b" (str.at var19 735)))
(assert (= "<" (str.at var7 744)))
(assert (= "a" (str.at var38 992)))
(assert (= "@" (str.at var43 307)))
(assert (= ")" (str.at var26 51)))
(assert (= "G" (str.at var36 497)))
(assert (= "4" (str.at var11 362)))
(assert (= "x" (str.at var52 601)))
(assert (= "j" (str.at var22 301)))
(assert (= "9" (str.at var15 429)))
(assert (= "|" (str.at var16 382)))
(assert (= "`" (str.at var14 194)))
(assert (= "*" (str.at var6 664)))
(assert (= "]" (str.at var57 515)))
(assert (= "e" (str.at var17 51)))
(assert (= "0" (str.at var48 43)))
(assert (= """" (str.at var24 674)))
(assert (= "w" (str.at var55 493)))
(assert (= "(" (str.at var18 506)))
(assert (= "U" (str.at var19 67)))
(assert (= "k" (str.at var35 146)))
(assert (= "C" (str.at var32 196)))
(assert (= "[" (str.at var21 94)))
(assert (= "W" (str.at var3 87)))
(assert (= "p" (str.at var39 739)))
(assert (= "=" (str.at var40 199)))
(assert (= "Y" (str.at var41 668)))
(assert (= "%" (str.at var50 219)))
(assert (= "I" (str.at var11 289)))
(assert (= "R" (str.at var29 852)))
(assert (= "%" (str.at var28 199)))
(assert (= "S" (str.at var43 942)))
(assert (= "`" (str.at var7 135)))
(assert (= "<" (str.at var26 154)))
(assert (= "@" (str.at var32 450)))
(assert (= "a" (str.at var34 503)))
(assert (= "=" (str.at var51 902)))
(assert (= "_" (str.at var43 953)))
(assert (= "G" (str.at var8 803)))
(assert (= "7" (str.at var46 482)))
(assert (= "1" (str.at var5 875)))
(assert (= "s" (str.at var50 423)))
(assert (= "A" (str.at var39 23)))
(assert (= "7" (str.at var32 746)))
(assert (= "(" (str.at var31 329)))
(assert (= "g" (str.at var32 461)))
(assert (= "a" (str.at var31 247)))
(assert (= "N" (str.at var14 706)))
(assert (= "#" (str.at var39 607)))
(assert (= "s" (str.at var54 143)))
(assert (= "R" (str.at var21 927)))
(assert (= ";" (str.at var33 45)))
(assert (= "f" (str.at var50 994)))
(assert (= ")" (str.at var21 994)))
(assert (= "\\" (str.at var14 90)))
(assert (= "F" (str.at var7 937)))
(assert (= "l" (str.at var3 333)))
(assert (= "@" (str.at var54 572)))
(assert (= "E" (str.at var0 6)))
(assert (= "y" (str.at var29 665)))
(assert (= "Z" (str.at var59 753)))
(assert (= "c" (str.at var31 751)))
(assert (= "$" (str.at var27 195)))
(assert (= "=" (str.at var18 976)))
(assert (= "q" (str.at var28 177)))
(assert (= "v" (str.at var60 118)))
(assert (= "{" (str.at var18 180)))
(assert (= "D" (str.at var1 363)))
(assert (= "]" (str.at var60 461)))
(assert (= "." (str.at var43 604)))
(assert (= "M" (str.at var26 157)))
(assert (= "z" (str.at var59 337)))
(assert (= "m" (str.at var51 459)))
(assert (= "e" (str.at var3 15)))
(assert (= "]" (str.at var4 220)))
(assert (= "C" (str.at var39 620)))
(assert (= "n" (str.at var19 893)))
(assert (= "z" (str.at var54 418)))
(assert (= "E" (str.at var36 656)))
(assert (= "A" (str.at var47 453)))
(assert (= "^" (str.at var11 399)))
(assert (= "C" (str.at var60 678)))
(assert (= "F" (str.at var41 230)))
(assert (= "m" (str.at var47 604)))
(assert (= "*" (str.at var54 512)))
(assert (= "y" (str.at var34 577)))
(assert (= "D" (str.at var60 629)))
(assert (= """" (str.at var12 915)))
(assert (= ":" (str.at var40 724)))
(assert (= "D" (str.at var55 900)))
(assert (= "u" (str.at var11 795)))
(assert (= "W" (str.at var49 183)))
(assert (= "\\" (str.at var60 432)))
(assert (= "." (str.at var34 902)))
(assert (= "U" (str.at var14 101)))
(assert (= "k" (str.at var49 671)))
(assert (= "n" (str.at var10 808)))
(assert (= "r" (str.at var28 432)))
(assert (= "~" (str.at var57 799)))
(assert (= "'" (str.at var36 904)))
(assert (= "1" (str.at var20 447)))
(assert (= "P" (str.at var7 665)))
(assert (= "$" (str.at var59 937)))
(assert (= "`" (str.at var12 67)))
(assert (= "7" (str.at var47 911)))
(assert (= "P" (str.at var17 930)))
(assert (= "q" (str.at var39 706)))
(assert (= "B" (str.at var37 648)))
(assert (= "e" (str.at var15 701)))
(assert (= "_" (str.at var46 3)))
(assert (= "B" (str.at var47 648)))
(assert (= "?" (str.at var24 579)))
(assert (= "=" (str.at var41 161)))
(assert (= "o" (str.at var44 554)))
(assert (= "O" (str.at var44 503)))
(assert (= "E" (str.at var1 880)))
(assert (= "T" (str.at var36 769)))
(assert (= "Q" (str.at var35 216)))
(assert (= "&" (str.at var26 879)))
(assert (= "@" (str.at var15 919)))
(assert (= "-" (str.at var45 954)))
(assert (= "G" (str.at var59 36)))
(assert (= "o" (str.at var7 828)))
(assert (= "W" (str.at var5 99)))
(assert (= "I" (str.at var3 183)))
(assert (= "6" (str.at var11 521)))
(assert (= "!" (str.at var39 942)))
(assert (= "L" (str.at var37 976)))
(assert (= "u" (str.at var58 804)))
(assert (= "`" (str.at var55 514)))
(assert (= "^" (str.at var2 974)))
(assert (= "X" (str.at var52 971)))
(assert (= "L" (str.at var10 732)))
(assert (= "X" (str.at var25 819)))
(assert (= ")" (str.at var2 733)))
(assert (= "|" (str.at var19 303)))
(assert (= "+" (str.at var36 535)))
(assert (= "F" (str.at var12 429)))
(assert (= "/" (str.at var10 818)))
(assert (= "O" (str.at var0 432)))
(assert (= "`" (str.at var4 850)))
(assert (= "x" (str.at var39 396)))
(assert (= "j" (str.at var30 139)))
(assert (= "^" (str.at var18 966)))
(assert (= "[" (str.at var3 448)))
(assert (= "n" (str.at var40 800)))
(assert (= "X" (str.at var44 362)))
(assert (= "^" (str.at var0 198)))
(assert (= "U" (str.at var15 920)))
(assert (= "q" (str.at var39 866)))
(assert (= "o" (str.at var38 614)))
(assert (= "l" (str.at var49 384)))
(assert (= "n" (str.at var43 619)))
(assert (= "x" (str.at var7 227)))
(assert (= "m" (str.at var33 273)))
(assert (= "`" (str.at var36 94)))
(assert (= "L" (str.at var17 652)))
(assert (= "Z" (str.at var31 850)))
(assert (= "-" (str.at var52 270)))
(assert (= "{" (str.at var51 717)))
(assert (= "?" (str.at var40 797)))
(assert (= "Z" (str.at var22 226)))
(assert (= ";" (str.at var26 516)))
(assert (= ">" (str.at var22 638)))
(assert (= "k" (str.at var17 817)))
(assert (= "u" (str.at var13 614)))
(assert (= ">" (str.at var41 459)))
(assert (= "m" (str.at var35 977)))
(assert (= "G" (str.at var38 491)))
(assert (= "A" (str.at var48 475)))
(assert (= "k" (str.at var8 32)))
(assert (= "#" (str.at var48 720)))
(assert (= "W" (str.at var11 769)))
(assert (= "W" (str.at var4 190)))
(assert (= "=" (str.at var33 546)))
(assert (= "b" (str.at var8 753)))
(assert (= """" (str.at var53 482)))
(assert (= "V" (str.at var45 190)))
(assert (= "D" (str.at var22 789)))
(assert (= "g" (str.at var24 23)))
(assert (= "Q" (str.at var59 876)))
(assert (= "g" (str.at var31 959)))
(assert (= "B" (str.at var50 938)))
(assert (= "7" (str.at var38 379)))
(assert (= "z" (str.at var5 396)))
(assert (= "7" (str.at var33 81)))
(assert (= "-" (str.at var38 215)))
(assert (= "O" (str.at var46 604)))
(assert (= "N" (str.at var16 685)))
(assert (= ")" (str.at var21 102)))
(assert (= "b" (str.at var45 865)))
(check-sat)